NAME : TSP_INST.7589033.tour
COMMENT : Length = 7589033
COMMENT : Found by LKH [Keld Helsgaun] Sat Oct 18 11:07:55 2025
TYPE : TOUR
DIMENSION : 100
TOUR_SECTION
1
37
7
2
74
23
71
65
92
69
53
93
91
48
58
21
67
86
51
73
57
16
81
47
97
5
40
52
96
49
61
78
100
46
30
18
88
70
32
36
94
3
84
41
38
55
31
25
82
29
33
15
9
62
72
59
54
8
79
50
19
63
98
89
10
76
87
26
68
77
43
28
56
4
83
13
66
12
95
90
64
20
39
27
85
34
22
44
45
35
14
17
75
11
99
80
60
24
6
42
-1
EOF
